NAME          COPTPROB
OBJSENSE
  MIN
ROWS
 N  __OBJ___
 L  C18     
 L  C42     
 L  C60     
 L  C65     
 L  C116    
 L  C122    
 L  C126    
 L  C131    
 L  C155    
 L  C182    
 L  C192    
 L  C198    
COLUMNS
    MARKER    'MARKER'                 'INTORG'
    x46       __OBJ___  4
    x46       C18       -1
    x142      __OBJ___  81
    x142      C60       -1
    x204      __OBJ___  216
    x204      C126      -1
    x204      C131      -1
    x227      __OBJ___  84
    x227      C18       -1
    x227      C42       -1
    x455      __OBJ___  180
    x455      C155      -1
    x455      C192      -1
    x478      __OBJ___  126
    x478      C116      -1
    x478      C198      -1
    x562      __OBJ___  43
    x562      C18       -1
    x562      C122      -1
    x609      __OBJ___  80
    x609      C116      -1
    x609      C122      -1
    x683      __OBJ___  143
    x683      C131      -1
    x751      __OBJ___  161
    x751      C60       -1
    x751      C65       -1
    x974      __OBJ___  246
    x974      C42       -1
    x974      C155      -1
    x991      __OBJ___  121
    x991      C182      -1
    x991      C192      -1
    x1314     __OBJ___  88
    x1314     C60       -1
    x1314     C198      -1
    x1377     __OBJ___  244
    x1377     C65       -1
    x1377     C131      -1
    x1506     __OBJ___  198
    x1506     C126      -1
    x1506     C182      -1
    x1549     __OBJ___  49
    x1549     C192      -1
    MARKER    'MARKER'                 'INTEND'
RHS
    RHS       __OBJ___  -8609
    RHS       C18       -1
    RHS       C42       -1
    RHS       C60       -1
    RHS       C65       -1
    RHS       C116      -1
    RHS       C122      -1
    RHS       C126      -1
    RHS       C131      -1
    RHS       C155      -1
    RHS       C182      -1
    RHS       C192      -1
    RHS       C198      -1
BOUNDS
 UP BOUND     x46       1
 UP BOUND     x142      1
 UP BOUND     x204      1
 UP BOUND     x227      1
 UP BOUND     x455      1
 UP BOUND     x478      1
 UP BOUND     x562      1
 UP BOUND     x609      1
 UP BOUND     x683      1
 UP BOUND     x751      1
 UP BOUND     x974      1
 UP BOUND     x991      1
 UP BOUND     x1314     1
 UP BOUND     x1377     1
 UP BOUND     x1506     1
 UP BOUND     x1549     1
ENDATA
